letting n =  10
letting blocks =  [[1, 5], [1, 10], [2, 9], [3, 4], [3, 6], [4, 3], [4, 5], [4, 6], [4, 10], [5, 10], [6, 3], [6, 10], [7, 10], [8, 1], [8, 9], [9, 2], [9, 4], [10, 2], [10, 6], [10, 7]]
